Function: get_partitions took 2.0503997802734375e-05 seconds
Function: map_flows_partitions took 5.7220458984375e-06 seconds
Building model with:
4 devices, 3 partitions and 1 flows
Using license file /home/anup/gurobi.lic
Academic license - for non-commercial use only
Function: MIP.add_frac_mem_var took 0.00035858154296875 seconds
Function: MIP.add_coverage_constraints took 0.0002510547637939453 seconds
Function: MIP.add_accuracy_constraints took 0.0002846717834472656 seconds
Function: MIP.add_capacity_constraints took 0.000484466552734375 seconds
Changed value of parameter TimeLimit to 120.0
   Prev: inf  Min: 0.0  Max: inf  Default: inf
--------------------------------------------------
Starting model update
Model update took: 7.104873657226562e-05 s
--------------------------------------------------
Starting model optimize
Gurobi Optimizer version 9.0.0 build v9.0.0rc2 (linux64)
Optimize a model with 24 rows, 34 columns and 73 nonzeros
Model fingerprint: 0x80e4e826
Model has 1 general constraint
Variable types: 22 continuous, 12 integer (12 binary)
Coefficient statistics:
  Matrix range     [1e+00, 3e+04]
  Objective range  [1e+00, 1e+00]
  Bounds range     [1e+00, 3e+04]
  RHS range        [1e+00, 1e+00]

---------------------------------------------------------------------------
Multi-objectives: starting optimization with 2 objectives ... 
---------------------------------------------------------------------------

Multi-objectives: applying initial presolve ...
---------------------------------------------------------------------------

Presolve removed 16 rows and 15 columns
Presolve time: 0.00s
Presolved: 8 rows and 19 columns
---------------------------------------------------------------------------

Multi-objectives: optimize objective 1 (max_mem) ...
---------------------------------------------------------------------------

Presolve removed 4 rows and 8 columns
Presolve time: 0.00s
Presolved: 4 rows, 11 columns, 14 nonzeros
Presolved model has 2 SOS constraint(s)
Variable types: 3 continuous, 8 integer (8 binary)
Found heuristic solution: objective 25483.898438

Explored 0 nodes (0 simplex iterations) in 0.00 seconds
Thread count was 8 (of 8 available processors)

Solution count 1: 25483.9 

Optimal solution found (tolerance 1.00e-04)
Best objective 2.548389843750e+04, best bound 2.548389843750e+04, gap 0.0000%
---------------------------------------------------------------------------

Multi-objectives: optimize objective 2 (tot_mem) ...
---------------------------------------------------------------------------


Loaded user MIP start with objective 26469.3

Presolve removed 3 rows and 7 columns
Presolve time: 0.00s
Presolved: 6 rows, 12 columns, 18 nonzeros
Presolved model has 2 SOS constraint(s)
Found heuristic solution: objective 25976.601562
Variable types: 2 continuous, 10 integer (10 binary)

Root relaxation: cutoff, 7 iterations, 0.00 seconds

    Nodes    |    Current Node    |     Objective Bounds      |     Work
 Expl Unexpl |  Obj  Depth IntInf | Incumbent    BestBd   Gap | It/Node Time

     0     0     cutoff    0      25976.6016 25976.6016  0.00%     -    0s

Explored 0 nodes (7 simplex iterations) in 0.00 seconds
Thread count was 8 (of 8 available processors)

Solution count 2: 25976.6 26469.3 

Optimal solution found (tolerance 1.00e-04)
Best objective 2.597660156250e+04, best bound 2.597660156250e+04, gap 0.0000%

---------------------------------------------------------------------------
Multi-objectives: solved in 0.00 seconds, solution count 2

Model optimize took: 0.003039121627807617 seconds
--------------------------------------------------

Solution quality statistics for model Univmon :
  Maximum violation:
    Bound       : 2.91038305e-11 (mem_tot_CPU_2)
    Constraint  : 2.91038305e-11 (mem_tot_CPU_2)
    Integrality : 0.00000000e+00

Sketch (0) (cm: eps0: 7.500000000000001e-05, del0: 0.05, min_mem: 141.578125)
Par: 1, Rows: 3
(0.000,0)    (0.000,3)    (1.000,2)    (0.000,1)    
Total frac: 1.000

Sketch (1) (cm: eps0: 1.25e-06, del0: 0.05, min_mem: 8494.6328125)
Par: 1, Rows: 3
(1.000,0)    (0.000,3)    (0.000,2)    (0.000,1)    
Total frac: 1.000

Sketch (2) (cm: eps0: 0.000625, del0: 0.025, min_mem: 16.9921875)
Par: 1, Rows: 4
(0.000,1)    (1.000,3)    (0.000,0)    (0.000,2)    
Total frac: 1.000

Device (0) CPU_1:
Rows total: 3.0
Mem total: 25483.8984375

Device (1) CPU_2:
Rows total: 0.0
Mem total: -2.9103830456733704e-11

Device (2) P4_1:
Rows total: 3.0
Mem total: 424.734375

Device (3) P4_2:
Rows total: 4.0
Mem total: 67.96875
--------------------------------------------------
Changed value of parameter NonConvex to 2
   Prev: -1  Min: -1  Max: 2  Default: -1
Changed value of parameter NonConvex to 2
   Prev: -1  Min: -1  Max: 2  Default: -1

Throughput: 55.99439742457172 Mpps, ns per packet: 17.858929571428433
Resources: 105.12547588348389
Used Cores: 9.0, Total CPUS: 2, Switch Memory: 492.703125

Sketch (0) (cm: eps0: 7.500000000000001e-05, del0: 0.05, min_mem: 141.578125)
Par: 1, Rows: 3
(0.000,0)    (0.000,3)    (1.000,2)    (0.000,1)    
Total frac: 1.000

Sketch (1) (cm: eps0: 1.25e-06, del0: 0.05, min_mem: 8494.6328125)
Par: 1, Rows: 3
(1.000,0)    (0.000,3)    (0.000,2)    (0.000,1)    
Total frac: 1.000

Sketch (2) (cm: eps0: 0.000625, del0: 0.025, min_mem: 16.9921875)
Par: 1, Rows: 4
(0.000,1)    (1.000,3)    (0.000,0)    (0.000,2)    
Total frac: 1.000

Device (0) CPU_1:
cores_sketch: 5.000000000000001, cores_dpdk: 1.9999999999999993
Rows total: 3.0
Mem total: 25483.8984375
Throughput: 56.00000000000043

Device (1) CPU_2:
cores_sketch: 0.0, cores_dpdk: 2.0
Rows total: 0
Mem total: 0.0
Throughput: 55.99439742457172

Device (2) P4_1:
Rows total: 3.0
Mem total: 424.734375
Throughput: 148.0

Device (3) P4_2:
Rows total: 4.0
Mem total: 67.96875
Throughput: 148.0
--------------------------------------------------
Function: MIP.solve took 0.025106191635131836 seconds
Function: solve took 0.025424957275390625 seconds
